g3 0 1 0	# problem tln6
 48 36 1 0 0	# vars, constraints, objectives, ranges, eqns
 6 0	# nonlinear constraints, objectives
 0 0	# network constraints: nonlinear, linear
 42 0 0	# nonlinear vars in constraints, objectives, both
 0 0 0 1	# linear network variables; functions; arith, flags
 6 0 0 42 0	# discrete variables: binary, integer, nonlinear (b,c,o)
 204 12	# nonzeros in Jacobian, gradients
 3 3	# max name lengths: constraints, variables
 0 0 0 0 0	# common exprs: b,c,o,c1,o1
b
0 0 16
0 0 16
0 0 16
0 0 16
0 0 16
0 0 16
0 0 5
0 0 5
0 0 5
0 0 5
0 0 5
0 0 5
0 0 5
0 0 5
0 0 5
0 0 5
0 0 5
0 0 5
0 0 5
0 0 5
0 0 5
0 0 5
0 0 5
0 0 5
0 0 5
0 0 5
0 0 5
0 0 5
0 0 5
0 0 5
0 0 5
0 0 5
0 0 5
0 0 5
0 0 5
0 0 5
0 0 5
0 0 5
0 0 5
0 0 5
0 0 5
0 0 5
0 0 1
0 0 1
0 0 1
0 0 1
0 0 1
0 0 1
x42
0 1
1 1
2 1
3 1
4 1
5 1
6 1
7 1
8 1
9 1
10 1
11 1
12 1
13 1
14 1
15 1
16 1
17 1
18 1
19 1
20 1
21 1
22 1
23 1
24 1
25 1
26 1
27 1
28 1
29 1
30 1
31 1
32 1
33 1
34 1
35 1
36 1
37 1
38 1
39 1
40 1
41 1
r
1 -8
1 -16
1 -12
1 -7
1 -14
1 -16
1 2.2e3
1 2.2e3
1 2.2e3
1 2.2e3
1 2.2e3
1 2.2e3
1 -2.1e3
1 -2.1e3
1 -2.1e3
1 -2.1e3
1 -2.1e3
1 -2.1e3
1 5
1 5
1 5
1 5
1 5
1 5
1 0
1 0
1 0
1 0
1 0
1 0
1 0
1 0
1 0
1 0
1 0
1 0
C0
o16
o54
6
o2
v0
v6
o2
v1
v7
o2
v2
v8
o2
v3
v9
o2
v4
v10
o2
v5
v11
C1
o16
o54
6
o2
v0
v12
o2
v1
v13
o2
v2
v14
o2
v3
v15
o2
v4
v16
o2
v5
v17
C2
o16
o54
6
o2
v0
v18
o2
v1
v19
o2
v2
v20
o2
v3
v21
o2
v4
v22
o2
v5
v23
C3
o16
o54
6
o2
v0
v24
o2
v1
v25
o2
v2
v26
o2
v3
v27
o2
v4
v28
o2
v5
v29
C4
o16
o54
6
o2
v0
v30
o2
v1
v31
o2
v2
v32
o2
v3
v33
o2
v4
v34
o2
v5
v35
C5
o16
o54
6
o2
v0
v36
o2
v1
v37
o2
v2
v38
o2
v3
v39
o2
v4
v40
o2
v5
v41
C6
n0
C7
n0
C8
n0
C9
n0
C10
n0
C11
n0
C12
n0
C13
n0
C14
n0
C15
n0
C16
n0
C17
n0
C18
n0
C19
n0
C20
n0
C21
n0
C22
n0
C23
n0
C24
n0
C25
n0
C26
n0
C27
n0
C28
n0
C29
n0
C30
n0
C31
n0
C32
n0
C33
n0
C34
n0
C35
n0
O0 0
n0
k47
8
16
24
32
40
48
52
56
60
64
68
72
76
80
84
88
92
96
100
104
108
112
116
120
124
128
132
136
140
144
148
152
156
160
164
168
172
176
180
184
188
192
194
196
198
200
202
J0 12
0 0
1 0
2 0
3 0
4 0
5 0
6 0
7 0
8 0
9 0
10 0
11 0
J1 12
0 0
1 0
2 0
3 0
4 0
5 0
12 0
13 0
14 0
15 0
16 0
17 0
J2 12
0 0
1 0
2 0
3 0
4 0
5 0
18 0
19 0
20 0
21 0
22 0
23 0
J3 12
0 0
1 0
2 0
3 0
4 0
5 0
24 0
25 0
26 0
27 0
28 0
29 0
J4 12
0 0
1 0
2 0
3 0
4 0
5 0
30 0
31 0
32 0
33 0
34 0
35 0
J5 12
0 0
1 0
2 0
3 0
4 0
5 0
36 0
37 0
38 0
39 0
40 0
41 0
J6 6
6 3.3e2
12 3.6e2
18 3.8e2
24 4.3e2
30 4.9e2
36 5.3e2
J7 6
7 3.3e2
13 3.6e2
19 3.8e2
25 4.3e2
31 4.9e2
37 5.3e2
J8 6
8 3.3e2
14 3.6e2
20 3.8e2
26 4.3e2
32 4.9e2
38 5.3e2
J9 6
9 3.3e2
15 3.6e2
21 3.8e2
27 4.3e2
33 4.9e2
39 5.3e2
J10 6
10 3.3e2
16 3.6e2
22 3.8e2
28 4.3e2
34 4.9e2
40 5.3e2
J11 6
11 3.3e2
17 3.6e2
23 3.8e2
29 4.3e2
35 4.9e2
41 5.3e2
J12 6
6 -3.3e2
12 -3.6e2
18 -3.8e2
24 -4.3e2
30 -4.9e2
36 -5.3e2
J13 6
7 -3.3e2
13 -3.6e2
19 -3.8e2
25 -4.3e2
31 -4.9e2
37 -5.3e2
J14 6
8 -3.3e2
14 -3.6e2
20 -3.8e2
26 -4.3e2
32 -4.9e2
38 -5.3e2
J15 6
9 -3.3e2
15 -3.6e2
21 -3.8e2
27 -4.3e2
33 -4.9e2
39 -5.3e2
J16 6
10 -3.3e2
16 -3.6e2
22 -3.8e2
28 -4.3e2
34 -4.9e2
40 -5.3e2
J17 6
11 -3.3e2
17 -3.6e2
23 -3.8e2
29 -4.3e2
35 -4.9e2
41 -5.3e2
J18 6
6 1
12 1
18 1
24 1
30 1
36 1
J19 6
7 1
13 1
19 1
25 1
31 1
37 1
J20 6
8 1
14 1
20 1
26 1
32 1
38 1
J21 6
9 1
15 1
21 1
27 1
33 1
39 1
J22 6
10 1
16 1
22 1
28 1
34 1
40 1
J23 6
11 1
17 1
23 1
29 1
35 1
41 1
J24 2
0 -1
42 1
J25 2
1 -1
43 1
J26 2
2 -1
44 1
J27 2
3 -1
45 1
J28 2
4 -1
46 1
J29 2
5 -1
47 1
J30 2
0 1
42 -16
J31 2
1 1
43 -16
J32 2
2 1
44 -16
J33 2
3 1
45 -16
J34 2
4 1
46 -16
J35 2
5 1
47 -16
G0 12
0 1
1 1
2 1
3 1
4 1
5 1
42 .1
43 .2
44 .3
45 .4
46 .5
47 .6
